220	8 1
30 35 30 35 30 35 30 35
30 23 41 59
0 0
2  4 1 280 3 280 5 280 7 280 4 2 500 4 500 6 500 8 500
2  4 1 280 3 280 5 280 7 280 4 2 500 4 500 6 500 8 500
2  4 1 280 3 280 5 280 7 280 4 2 500 4 500 6 500 8 500
2  4 1 280 3 280 5 280 7 280 4 2 500 4 500 6 500 8 500
2  4 1 280 3 280 5 280 7 280 4 2 500 4 500 6 500 8 500
2  4 1 280 3 280 5 280 7 280 4 2 500 4 500 6 500 8 500
2  4 1 280 3 280 5 280 7 280 4 2 500 4 500 6 500 8 500
2  4 1 280 3 280 5 280 7 280 4 2 500 4 500 6 500 8 500
2  4 1 280 3 280 5 280 7 280 4 2 500 4 500 6 500 8 500
2  4 1 280 3 280 5 280 7 280 4 2 500 4 500 6 500 8 500
2  4 1 280 3 280 5 280 7 280 4 2 500 4 500 6 500 8 500
2  4 1 280 3 280 5 280 7 280 4 2 500 4 500 6 500 8 500
2  4 1 280 3 280 5 280 7 280 4 2 500 4 500 6 500 8 500
2  4 1 280 3 280 5 280 7 280 4 2 500 4 500 6 500 8 500
2  4 1 280 3 280 5 280 7 280 4 2 500 4 500 6 500 8 500
2  4 1 280 3 280 5 280 7 280 4 2 500 4 500 6 500 8 500
2  4 1 280 3 280 5 280 7 280 4 2 500 4 500 6 500 8 500
2  4 1 280 3 280 5 280 7 280 4 2 500 4 500 6 500 8 500
2  4 1 280 3 280 5 280 7 280 4 2 500 4 500 6 500 8 500
2  4 1 280 3 280 5 280 7 280 4 2 500 4 500 6 500 8 500
2  4 1 280 3 280 5 280 7 280 4 2 500 4 500 6 500 8 500
2  4 1 280 3 280 5 280 7 280 4 2 500 4 500 6 500 8 500
2  4 1 280 3 280 5 280 7 280 4 2 500 4 500 6 500 8 500
2  4 1 280 3 280 5 280 7 280 4 2 500 4 500 6 500 8 500
2  4 1 280 3 280 5 280 7 280 4 2 500 4 500 6 500 8 500
2  4 1 280 3 280 5 280 7 280 4 2 500 4 500 6 500 8 500
2  4 1 280 3 280 5 280 7 280 4 2 500 4 500 6 500 8 500
2  4 1 280 3 280 5 280 7 280 4 2 500 4 500 6 500 8 500
2  4 1 280 3 280 5 280 7 280 4 2 500 4 500 6 500 8 500
2  4 1 280 3 280 5 280 7 280 4 2 500 4 500 6 500 8 500
2  4 1 280 3 280 5 280 7 280 4 2 500 4 500 6 500 8 500
2  4 1 280 3 280 5 280 7 280 4 2 500 4 500 6 500 8 500
2  4 1 280 3 280 5 280 7 280 4 2 500 4 500 6 500 8 500
2  4 1 280 3 280 5 280 7 280 4 2 500 4 500 6 500 8 500
2  4 1 280 3 280 5 280 7 280 4 2 500 4 500 6 500 8 500
2  4 1 280 3 280 5 280 7 280 4 2 500 4 500 6 500 8 500
2  4 1 280 3 280 5 280 7 280 4 2 500 4 500 6 500 8 500
2  4 1 280 3 280 5 280 7 280 4 2 500 4 500 6 500 8 500
2  4 1 280 3 280 5 280 7 280 4 2 500 4 500 6 500 8 500
2  4 1 280 3 280 5 280 7 280 4 2 500 4 500 6 500 8 500
2  4 1 280 3 280 5 280 7 280 4 2 500 4 500 6 500 8 500
2  4 1 280 3 280 5 280 7 280 4 2 500 4 500 6 500 8 500
2  4 1 280 3 280 5 280 7 280 4 2 500 4 500 6 500 8 500
2  4 1 280 3 280 5 280 7 280 4 2 500 4 500 6 500 8 500
2  4 1 280 3 280 5 280 7 280 4 2 500 4 500 6 500 8 500
2  4 1 280 3 280 5 280 7 280 4 2 500 4 500 6 500 8 500
2  4 1 280 3 280 5 280 7 280 4 2 500 4 500 6 500 8 500
2  4 1 280 3 280 5 280 7 280 4 2 500 4 500 6 500 8 500
2  4 1 280 3 280 5 280 7 280 4 2 500 4 500 6 500 8 500
2  4 1 280 3 280 5 280 7 280 4 2 500 4 500 6 500 8 500
2  4 1 280 3 280 5 280 7 280 4 2 500 4 500 6 500 8 500
2  4 1 280 3 280 5 280 7 280 4 2 500 4 500 6 500 8 500
2  4 1 280 3 280 5 280 7 280 4 2 500 4 500 6 500 8 500
2  4 1 280 3 280 5 280 7 280 4 2 500 4 500 6 500 8 500
2  4 1 280 3 280 5 280 7 280 4 2 500 4 500 6 500 8 500
2  4 1 280 3 280 5 280 7 280 4 2 500 4 500 6 500 8 500
2  4 1 280 3 280 5 280 7 280 4 2 500 4 500 6 500 8 500
2  4 1 280 3 280 5 280 7 280 4 2 500 4 500 6 500 8 500
2  4 1 280 3 280 5 280 7 280 4 2 500 4 500 6 500 8 500
2  4 1 280 3 280 5 280 7 280 4 2 500 4 500 6 500 8 500
2  4 1 280 3 280 5 280 7 280 4 2 500 4 500 6 500 8 500
2  4 1 280 3 280 5 280 7 280 4 2 500 4 500 6 500 8 500
2  4 1 280 3 280 5 280 7 280 4 2 500 4 500 6 500 8 500
2  4 1 280 3 280 5 280 7 280 4 2 500 4 500 6 500 8 500
2  4 1 280 3 280 5 280 7 280 4 2 500 4 500 6 500 8 500
2  4 1 280 3 280 5 280 7 280 4 2 500 4 500 6 500 8 500
2  4 1 280 3 280 5 280 7 280 4 2 500 4 500 6 500 8 500
2  4 1 280 3 280 5 280 7 280 4 2 500 4 500 6 500 8 500
2  4 1 280 3 280 5 280 7 280 4 2 500 4 500 6 500 8 500
2  4 1 280 3 280 5 280 7 280 4 2 500 4 500 6 500 8 500
2  4 1 280 3 280 5 280 7 280 4 2 500 4 500 6 500 8 500
2  4 1 280 3 280 5 280 7 280 4 2 500 4 500 6 500 8 500
2  4 1 280 3 280 5 280 7 280 4 2 500 4 500 6 500 8 500
2  4 1 280 3 280 5 280 7 280 4 2 500 4 500 6 500 8 500
2  4 1 280 3 280 5 280 7 280 4 2 500 4 500 6 500 8 500
2  4 1 280 3 280 5 280 7 280 4 2 500 4 500 6 500 8 500
2  4 1 280 3 280 5 280 7 280 4 2 500 4 500 6 500 8 500
2  4 1 280 3 280 5 280 7 280 4 2 500 4 500 6 500 8 500
2  4 1 280 3 280 5 280 7 280 4 2 500 4 500 6 500 8 500
2  4 1 280 3 280 5 280 7 280 4 2 500 4 500 6 500 8 500
2  4 1 280 3 280 5 280 7 280 4 2 500 4 500 6 500 8 500
2  4 1 280 3 280 5 280 7 280 4 2 500 4 500 6 500 8 500
2  4 1 280 3 280 5 280 7 280 4 2 500 4 500 6 500 8 500
2  4 1 280 3 280 5 280 7 280 4 2 500 4 500 6 500 8 500
2  4 1 280 3 280 5 280 7 280 4 2 500 4 500 6 500 8 500
2  4 1 280 3 280 5 280 7 280 4 2 500 4 500 6 500 8 500
2  4 1 280 3 280 5 280 7 280 4 2 500 4 500 6 500 8 500
2  4 1 280 3 280 5 280 7 280 4 2 500 4 500 6 500 8 500
2  4 1 280 3 280 5 280 7 280 4 2 500 4 500 6 500 8 500
2  4 1 280 3 280 5 280 7 280 4 2 500 4 500 6 500 8 500
2  4 1 280 3 280 5 280 7 280 4 2 500 4 500 6 500 8 500
2  4 1 280 3 280 5 280 7 280 4 2 500 4 500 6 500 8 500
2  4 1 280 3 280 5 280 7 280 4 2 500 4 500 6 500 8 500
2  4 1 280 3 280 5 280 7 280 4 2 500 4 500 6 500 8 500
2  4 1 280 3 280 5 280 7 280 4 2 500 4 500 6 500 8 500
2  4 1 280 3 280 5 280 7 280 4 2 500 4 500 6 500 8 500
2  4 1 280 3 280 5 280 7 280 4 2 500 4 500 6 500 8 500
2  4 1 280 3 280 5 280 7 280 4 2 500 4 500 6 500 8 500
2  4 1 280 3 280 5 280 7 280 4 2 500 4 500 6 500 8 500
2  4 1 280 3 280 5 280 7 280 4 2 500 4 500 6 500 8 500
2  4 1 280 3 280 5 280 7 280 4 2 500 4 500 6 500 8 500
2  4 1 280 3 280 5 280 7 280 4 2 500 4 500 6 500 8 500
2  4 1 280 3 280 5 280 7 280 4 2 500 4 500 6 500 8 500
2  4 1 280 3 280 5 280 7 280 4 2 500 4 500 6 500 8 500
2  4 1 280 3 280 5 280 7 280 4 2 500 4 500 6 500 8 500
2  4 1 280 3 280 5 280 7 280 4 2 500 4 500 6 500 8 500
2  4 1 280 3 280 5 280 7 280 4 2 500 4 500 6 500 8 500
2  4 1 280 3 280 5 280 7 280 4 2 500 4 500 6 500 8 500
2  4 1 280 3 280 5 280 7 280 4 2 500 4 500 6 500 8 500
2  4 1 280 3 280 5 280 7 280 4 2 500 4 500 6 500 8 500
2  4 1 280 3 280 5 280 7 280 4 2 500 4 500 6 500 8 500
2  4 1 280 3 280 5 280 7 280 4 2 500 4 500 6 500 8 500
2  4 1 280 3 280 5 280 7 280 4 2 500 4 500 6 500 8 500
2  4 1 280 3 280 5 280 7 280 4 2 500 4 500 6 500 8 500
2  4 1 280 3 280 5 280 7 280 4 2 500 4 500 6 500 8 500
2  4 1 280 3 280 5 280 7 280 4 2 500 4 500 6 500 8 500
2  4 1 280 3 280 5 280 7 280 4 2 500 4 500 6 500 8 500
2  4 1 280 3 280 5 280 7 280 4 2 500 4 500 6 500 8 500
2  4 1 280 3 280 5 280 7 280 4 2 500 4 500 6 500 8 500
2  4 1 280 3 280 5 280 7 280 4 2 500 4 500 6 500 8 500
2  4 1 280 3 280 5 280 7 280 4 2 500 4 500 6 500 8 500
2  4 1 280 3 280 5 280 7 280 4 2 500 4 500 6 500 8 500
2  4 1 280 3 280 5 280 7 280 4 2 500 4 500 6 500 8 500
2  4 1 280 3 280 5 280 7 280 4 2 500 4 500 6 500 8 500
2  4 1 280 3 280 5 280 7 280 4 2 500 4 500 6 500 8 500
2  4 1 280 3 280 5 280 7 280 4 2 500 4 500 6 500 8 500
2  4 1 280 3 280 5 280 7 280 4 2 500 4 500 6 500 8 500
2  4 1 280 3 280 5 280 7 280 4 2 500 4 500 6 500 8 500
2  4 1 280 3 280 5 280 7 280 4 2 500 4 500 6 500 8 500
2  4 1 280 3 280 5 280 7 280 4 2 500 4 500 6 500 8 500
2  4 1 280 3 280 5 280 7 280 4 2 500 4 500 6 500 8 500
2  4 1 280 3 280 5 280 7 280 4 2 500 4 500 6 500 8 500
2  4 1 280 3 280 5 280 7 280 4 2 500 4 500 6 500 8 500
2  4 1 280 3 280 5 280 7 280 4 2 500 4 500 6 500 8 500
2  4 1 280 3 280 5 280 7 280 4 2 500 4 500 6 500 8 500
2  4 1 280 3 280 5 280 7 280 4 2 500 4 500 6 500 8 500
2  4 1 280 3 280 5 280 7 280 4 2 500 4 500 6 500 8 500
2  4 1 280 3 280 5 280 7 280 4 2 500 4 500 6 500 8 500
2  4 1 280 3 280 5 280 7 280 4 2 500 4 500 6 500 8 500
2  4 1 280 3 280 5 280 7 280 4 2 500 4 500 6 500 8 500
2  4 1 280 3 280 5 280 7 280 4 2 500 4 500 6 500 8 500
2  4 1 280 3 280 5 280 7 280 4 2 500 4 500 6 500 8 500
2  4 1 280 3 280 5 280 7 280 4 2 500 4 500 6 500 8 500
2  4 1 280 3 280 5 280 7 280 4 2 500 4 500 6 500 8 500
2  4 1 280 3 280 5 280 7 280 4 2 500 4 500 6 500 8 500
2  4 1 280 3 280 5 280 7 280 4 2 500 4 500 6 500 8 500
2  4 1 280 3 280 5 280 7 280 4 2 500 4 500 6 500 8 500
2  4 1 280 3 280 5 280 7 280 4 2 500 4 500 6 500 8 500
2  4 1 280 3 280 5 280 7 280 4 2 500 4 500 6 500 8 500
2  4 1 280 3 280 5 280 7 280 4 2 500 4 500 6 500 8 500
2  4 1 280 3 280 5 280 7 280 4 2 500 4 500 6 500 8 500
2  4 1 280 3 280 5 280 7 280 4 2 500 4 500 6 500 8 500
2  4 1 280 3 280 5 280 7 280 4 2 500 4 500 6 500 8 500
2  4 1 280 3 280 5 280 7 280 4 2 500 4 500 6 500 8 500
2  4 1 280 3 280 5 280 7 280 4 2 500 4 500 6 500 8 500
2  4 1 280 3 280 5 280 7 280 4 2 500 4 500 6 500 8 500
2  4 1 280 3 280 5 280 7 280 4 2 500 4 500 6 500 8 500
2  4 1 280 3 280 5 280 7 280 4 2 500 4 500 6 500 8 500
2  4 1 280 3 280 5 280 7 280 4 2 500 4 500 6 500 8 500
2  4 1 280 3 280 5 280 7 280 4 2 500 4 500 6 500 8 500
2  4 1 280 3 280 5 280 7 280 4 2 500 4 500 6 500 8 500
2  4 1 280 3 280 5 280 7 280 4 2 500 4 500 6 500 8 500
2  4 1 280 3 280 5 280 7 280 4 2 500 4 500 6 500 8 500
2  4 1 280 3 280 5 280 7 280 4 2 500 4 500 6 500 8 500
2  4 1 280 3 280 5 280 7 280 4 2 500 4 500 6 500 8 500
2  4 1 280 3 280 5 280 7 280 4 2 500 4 500 6 500 8 500
2  4 1 280 3 280 5 280 7 280 4 2 500 4 500 6 500 8 500
2  4 1 280 3 280 5 280 7 280 4 2 500 4 500 6 500 8 500
2  4 1 280 3 280 5 280 7 280 4 2 500 4 500 6 500 8 500
2  4 1 280 3 280 5 280 7 280 4 2 500 4 500 6 500 8 500
2  4 1 280 3 280 5 280 7 280 4 2 500 4 500 6 500 8 500
2  4 1 280 3 280 5 280 7 280 4 2 500 4 500 6 500 8 500
2  4 1 280 3 280 5 280 7 280 4 2 500 4 500 6 500 8 500
2  4 1 280 3 280 5 280 7 280 4 2 500 4 500 6 500 8 500
2  4 1 280 3 280 5 280 7 280 4 2 500 4 500 6 500 8 500
2  4 1 280 3 280 5 280 7 280 4 2 500 4 500 6 500 8 500
2  4 1 280 3 280 5 280 7 280 4 2 500 4 500 6 500 8 500
2  4 1 280 3 280 5 280 7 280 4 2 500 4 500 6 500 8 500
2  4 1 280 3 280 5 280 7 280 4 2 500 4 500 6 500 8 500
2  4 1 280 3 280 5 280 7 280 4 2 500 4 500 6 500 8 500
2  4 1 280 3 280 5 280 7 280 4 2 500 4 500 6 500 8 500
2  4 1 280 3 280 5 280 7 280 4 2 500 4 500 6 500 8 500
2  4 1 280 3 280 5 280 7 280 4 2 500 4 500 6 500 8 500
2  4 1 280 3 280 5 280 7 280 4 2 500 4 500 6 500 8 500
2  4 1 280 3 280 5 280 7 280 4 2 500 4 500 6 500 8 500
2  4 1 280 3 280 5 280 7 280 4 2 500 4 500 6 500 8 500
2  4 1 280 3 280 5 280 7 280 4 2 500 4 500 6 500 8 500
2  4 1 280 3 280 5 280 7 280 4 2 500 4 500 6 500 8 500
2  4 1 280 3 280 5 280 7 280 4 2 500 4 500 6 500 8 500
2  4 1 280 3 280 5 280 7 280 4 2 500 4 500 6 500 8 500
2  4 1 280 3 280 5 280 7 280 4 2 500 4 500 6 500 8 500
2  4 1 280 3 280 5 280 7 280 4 2 500 4 500 6 500 8 500
2  4 1 280 3 280 5 280 7 280 4 2 500 4 500 6 500 8 500
2  4 1 280 3 280 5 280 7 280 4 2 500 4 500 6 500 8 500
2  4 1 280 3 280 5 280 7 280 4 2 500 4 500 6 500 8 500
2  4 1 280 3 280 5 280 7 280 4 2 500 4 500 6 500 8 500
2  4 1 280 3 280 5 280 7 280 4 2 500 4 500 6 500 8 500
2  4 1 280 3 280 5 280 7 280 4 2 500 4 500 6 500 8 500
2  4 1 280 3 280 5 280 7 280 4 2 500 4 500 6 500 8 500
2  4 1 280 3 280 5 280 7 280 4 2 500 4 500 6 500 8 500
2  4 1 280 3 280 5 280 7 280 4 2 500 4 500 6 500 8 500
2  4 1 280 3 280 5 280 7 280 4 2 500 4 500 6 500 8 500
2  4 1 280 3 280 5 280 7 280 4 2 500 4 500 6 500 8 500
2  4 1 280 3 280 5 280 7 280 4 2 500 4 500 6 500 8 500
2  4 1 280 3 280 5 280 7 280 4 2 500 4 500 6 500 8 500
2  4 1 280 3 280 5 280 7 280 4 2 500 4 500 6 500 8 500
2  4 1 280 3 280 5 280 7 280 4 2 500 4 500 6 500 8 500
2  4 1 280 3 280 5 280 7 280 4 2 500 4 500 6 500 8 500
2  4 1 280 3 280 5 280 7 280 4 2 500 4 500 6 500 8 500
2  4 1 280 3 280 5 280 7 280 4 2 500 4 500 6 500 8 500